objective value:                                  -12
t_n_2                                               1 	(obj:-1)
t_n_147                                             1 	(obj:-1)
t_n_283                                             1 	(obj:-1)
t_n_321                                             1 	(obj:-1)
t_n_420                                             1 	(obj:-1)
t_n_432                                             1 	(obj:-1)
t_n_486                                             1 	(obj:-1)
t_n_557                                             1 	(obj:-1)
t_n_627                                             1 	(obj:-1)
t_n_696                                             1 	(obj:-1)
t_n_723                                             1 	(obj:-1)
t_n_747                                             1 	(obj:-1)
